# Objective value = 1.8278571428573193e+02
q0 1.0000000000004052e+00
q1 9.9999999999959488e-01
q2 1
q3 0
q4 1
q5 0
q6 0
q7 1
q8 0
q9 0
q10 0
q11 0
q12 0
q13 1
q14 0
q15 0
q16 1
q17 1
q18 0
q19 0
q20 0
q21 0
q22 0
q23 0
q24 0
q25 0
q26 0
q27 0
q28 0
q29 0
q30 0
q31 1
q32 1
q33 0
q34 0
q35 0
q36 0
q37 0
q38 -3.0548896745585807e-12
q39 -4.0767389464235748e-13
q40 9.9999999999959233e-01
q41 1
q42 0
q43 1
q44 0
q45 0
q46 1
q47 0
q48 0
q49 1
q50 0
q51 1
q52 1.0000000000000191e+00
q53 0
q54 0
q55 0
q56 1
q57 0
q58 0
q59 0
l0 1
l1 1
l2 1.4285714285729283e+00
l3 2.5714285714282901e+00
l4 1
l5 1
l6 1
l7 1
l8 1
l9 1
l10 1
l11 2
l12 1
l13 1
l14 1
l15 1
l16 1
l17 1
l18 1
l19 1
l20 1
l21 1
l22 1
l23 1
l24 1
l25 1
l26 1
l27 1
l28 1
l29 3
l30 1
l31 1
l32 1
l33 1
l34 3
l35 1
l36 1
l37 1
l38 1
l39 1
l40 1
l41 1
l42 1
l43 1.4285714285710174e+00
l44 1.7857142857146755e+00
l45 1.2142857142835062e+00
l46 1.5000000000018188e+00
l47 1.5000000000018188e+00
l48 2.0000000000014304e+00
l49 2
l50 2
l51 2
l52 1
l53 1
l54 2
l55 1
l56 1
l57 1
l58 1
l59 1
l60 1
l61 1
l62 1
vx0 10000
vy0 10000
pa0 0
a0 0
pb0 1
b0 1
pc0 0
c0 0
pd0 1
d0 1
vx42 1.0003428571428572e+04
vx40 1.0004428571428572e+04
vy42 9994
vy40 9995
pa1 0
a1 0
pb1 1
b1 1
pc1 0
c1 0
pd1 -4.0516815984881654e-13
d1 -4.0516815984881654e-13
vx5 1.0002428571428572e+04
vy5 9994
pa2 0
a2 0
pb2 1.4285714285729283e+00
b2 1
pc2 1.4285714285729283e+00
c2 1
pd2 0
d2 0
vx63 10001
vy63 9.9954285714285706e+03
pa3 0
a3 0
pb3 0
b3 0
pc3 2.5714285714282901e+00
c3 1
pd3 0
d3 0
vx15 10001
vy15 9998
pa4 0
a4 0
pb4 0
b4 0
pc4 1
c4 1
pd4 0
d4 0
vx2 10001
vy2 9999
pa5 0
a5 0
pb5 1
b5 1
pc5 1
c5 1
pd5 0
d5 0
pa6 0
a6 0
pb6 1
b6 1
pc6 1
c6 1
pd6 0
d6 0
vx14 9999
vy14 10001
pa7 0
a7 0
pb7 1
b7 1
pc7 1
c7 1
pd7 0
d7 0
vx16 9998
vy16 10002
pa8 0
a8 0
pb8 1
b8 1
pc8 0
c8 0
pd8 0
d8 0
vx10 9997
vy10 10002
pa9 0
a9 0
pb9 1
b9 1
pc9 0
c9 0
pd9 0
d9 0
vx12 9996
vy12 10002
pa10 0
a10 0
pb10 1
b10 1
pc10 0
c10 0
pd10 0
d10 0
vx9 9995
vy9 10002
pa11 0
a11 0
pb11 2
b11 1
pc11 0
c11 0
pd11 0
d11 0
vx1 9993
vy1 10002
pa12 0
a12 0
pb12 1
b12 1
pc12 0
c12 0
pd12 0
d12 0
vx7 9992
vy7 10002
pa13 0
a13 0
pb13 1
b13 1
pc13 0
c13 0
pd13 0
d13 0
vx6 9991
vy6 10002
pa14 0
a14 0
pb14 1
b14 1
pc14 1
c14 1
pd14 0
d14 0
vx8 9990
vy8 10003
pa15 0
a15 0
pb15 1
b15 1
pc15 1
c15 1
pd15 0
d15 0
vx11 9989
vy11 10004
pa16 0
a16 0
pb16 1
b16 1
pc16 1
c16 1
pd16 0
d16 0
vx13 9988
vy13 10005
pa17 0
a17 0
pb17 1
b17 1
pc17 0
c17 0
pd17 0
d17 0
vx4 9987
vy4 10005
pa18 0
a18 0
pb18 1
b18 1
pc18 0
c18 0
pd18 1
d18 1
vx36 9986
vy36 10004
pa19 0
a19 0
pb19 1
b19 1
pc19 0
c19 0
pd19 1
d19 1
vx39 9985
vy39 10003
pa20 0
a20 0
pb20 1
b20 1
pc20 0
c20 0
pd20 1
d20 1
vx38 9984
vy38 10002
pa21 0
a21 0
pb21 1
b21 1
pc21 0
c21 0
pd21 1
d21 1
vx37 9983
vy37 10001
pa22 0
a22 0
pb22 0
b22 0
pc22 1
c22 1
pd22 0
d22 0
vx27 9993
vx17 9993
vy27 9987
vy17 9986
pa23 0
a23 0
pb23 0
b23 0
pc23 1
c23 1
pd23 0
d23 0
vx30 9993
vy30 9988
pa24 0
a24 0
pb24 0
b24 0
pc24 1
c24 1
pd24 0
d24 0
vx31 9993
vy31 9989
pa25 0
a25 0
pb25 0
b25 0
pc25 1
c25 1
pd25 0
d25 0
vx33 9993
vy33 9990
pa26 0
a26 0
pb26 0
b26 0
pc26 1
c26 1
pd26 0
d26 0
vx29 9993
vy29 9991
pa27 0
a27 0
pb27 0
b27 0
pc27 1
c27 1
pd27 0
d27 0
vx34 9993
vy34 9992
pa28 0
a28 0
pb28 0
b28 0
pc28 1
c28 1
pd28 0
d28 0
vx32 9993
vy32 9993
pa29 0
a29 0
pb29 0
b29 0
pc29 3
c29 1
pd29 0
d29 0
vx65 9993
vy65 9996
pa30 0
a30 0
pb30 0
b30 0
pc30 1
c30 1
pd30 0
d30 0
vx28 9993
vy28 9997
pa31 0
a31 0
pb31 0
b31 0
pc31 1
c31 1
pd31 0
d31 0
vx18 9993
vy18 9998
pa32 0
a32 0
pb32 0
b32 0
pc32 1
c32 1
pd32 0
d32 0
vx19 9993
vy19 9999
pa33 1
a33 1
pb33 0
b33 0
pc33 1
c33 1
pd33 0
d33 0
vx26 9994
vy26 10000
pa34 0
a34 0
pb34 0
b34 0
pc34 3
c34 1
pd34 0
d34 0
vx21 9994
vy21 10003
pa35 0
a35 0
pb35 0
b35 0
pc35 1
c35 1
pd35 0
d35 0
vx24 9994
vy24 10004
pa36 0
a36 0
pb36 0
b36 0
pc36 1
c36 1
pd36 0
d36 0
vx23 9994
vy23 10005
pa37 0
a37 0
pb37 0
b37 0
pc37 1
c37 1
pd37 0
d37 0
vx20 9994
vy20 10006
pa38 0
a38 0
pb38 0
b38 0
pc38 1
c38 1
pd38 0
d38 0
vx25 9994
vy25 10007
pa39 0
a39 0
pb39 0
b39 0
pc39 1
c39 1
pd39 0
d39 0
vx22 9994
vy22 10008
pa40 0
a40 0
pb40 1
b40 1
pc40 1.0000000000030549e+00
c40 1.0000000000030549e+00
pd40 0
d40 0
vx64 1.0005428571428572e+04
vx41 1.0006428571428572e+04
vy64 9995
vy41 9.9939999999999964e+03
pa41 0
a41 0
pb41 1
b41 1
pc41 1
c41 1
pd41 0
d41 0
vx43 1.0004428571428572e+04
vy43 9996
pa42 0
a42 0
pb42 1.0000000000032612e+00
b42 1.0000000000004077e+00
pc42 1
c42 1
pd42 0
d42 0
vx44 1.0003428571428571e+04
vy44 9997
pa43 0
a43 0
pb43 1.4285714285710174e+00
b43 1
pc43 0
c43 0
pd43 0
d43 0
vx3 1.0002000000000002e+04
vy3 9997
pa44 0
a44 0
pb44 1.7857142857146755e+00
b44 1
pc44 0
c44 0
pd44 1.7857142857137660e+00
d44 1
vx45 1.0000214285714286e+04
vy45 9.9952142857142862e+03
pa45 0
a45 0
pb45 1.2142857142835062e+00
b45 1
pc45 0
c45 0
pd45 1.2142857142835062e+00
d45 1
vx46 9.9990000000000018e+03
vy46 9.9940000000000018e+03
pa46 0
a46 0
pb46 1.5000000000018188e+00
b46 1
pc46 0
c46 0
pd46 0
d46 0
vx47 9997.5
vy47 9.9940000000000018e+03
pa47 0
a47 0
pb47 1.5000000000018188e+00
b47 1
pc47 0
c47 0
pd47 0
d47 0
vx48 9.9959999999999982e+03
vy48 9.9940000000000018e+03
pa48 0
a48 0
pb48 2.0000000000014304e+00
b48 1
pc48 0
c48 0
pd48 1.8189894035458565e-12
d48 0
vx35 9994
vy35 9994
pa49 0
a49 0
pb49 2
b49 1
pc49 2
c49 1
pd49 0
d49 0
vx49 9992
vy49 9996
pa50 0
a50 0
pb50 2
b50 1
pc50 2
c50 1
pd50 0
d50 0
vx50 9990
vy50 9998
pa51 0
a51 0
pb51 2
b51 1
pc51 2
c51 1
pd51 0
d51 0
vx51 9988
vy51 10000
pa52 0
a52 0
pb52 0
b52 0
pc52 1
c52 1
pd52 0
d52 0
vx52 9988
vy52 10001
pa53 0
a53 0
pb53 0
b53 0
pc53 1
c53 1
pd53 0
d53 0
vx62 9988
vy62 10002
pa54 2
a54 1.0000000000000191e+00
pb54 0
b54 0
pc54 2
c54 1
pd54 0
d54 0
vx53 9990
vy53 10004
pa55 0
a55 0
pb55 0
b55 0
pc55 1
c55 1
pd55 0
d55 0
vx54 9990
vy54 10005
pa56 0
a56 0
pb56 0
b56 0
pc56 1
c56 1
pd56 0
d56 0
vx55 9990
vy55 10006
pa57 0
a57 0
pb57 0
b57 0
pc57 1
c57 1
pd57 0
d57 0
vx56 9990
vy56 10007
pa58 0
a58 0
pb58 0
b58 0
pc58 1
c58 1
pd58 0
d58 0
vx57 9990
vy57 10008
pa59 0
a59 0
pb59 1
b59 1
pc59 1
c59 1
pd59 0
d59 0
vx58 9989
vy58 10009
pa60 0
a60 0
pb60 1
b60 1
pc60 1
c60 1
pd60 0
d60 0
vx59 9988
vy59 10010
pa61 0
a61 0
pb61 1
b61 1
pc61 1
c61 1
pd61 0
d61 0
vx60 9987
vy60 10011
pa62 0
a62 0
pb62 1
b62 1
pc62 1
c62 1
pd62 0
d62 0
vx61 9986
vy61 10012
oa0 0
ob0 0
oc0 0
od0 1.0000000000004052e+00
ua0 0
ub0 1
uc0 0
ud0 -4.0516815984881654e-13
oa1 0
ob1 0
oc1 1
od1 -4.0516815984881654e-13
ua1 0
ub1 1
uc1 0
ud1 0
oa2 0
ob2 1
oc2 0
od2 0
ua2 0
ub2 0
uc2 1
ud2 0
oa3 0
ob3 0
oc3 0
od3 0
ua3 0
ub3 0
uc3 1
ud3 0
oa4 0
ob4 1
oc4 0
od4 0
ua4 0
ub4 0
uc4 1
ud4 0
oa5 0
ob5 0
oc5 0
od5 0
ua5 0
ub5 1
uc5 1
ud5 0
oa6 0
ob6 0
oc6 0
od6 0
ua6 0
ub6 1
uc6 1
ud6 0
oa7 0
ob7 0
oc7 1
od7 0
ua7 0
ub7 1
uc7 0
ud7 0
oa8 0
ob8 0
oc8 0
od8 0
ua8 0
ub8 1
uc8 0
ud8 0
oa9 0
ob9 0
oc9 0
od9 0
ua9 0
ub9 1
uc9 0
ud9 0
oa10 0
ob10 0
oc10 0
od10 0
ua10 0
ub10 1
uc10 0
ud10 0
oa11 0
ob11 0
oc11 0
od11 0
ua11 0
ub11 1
uc11 0
ud11 0
oa12 0
ob12 0
oc12 0
od12 0
ua12 0
ub12 1
uc12 0
ud12 0
oa13 0
ob13 0
oc13 1
od13 0
ua13 0
ub13 1
uc13 0
ud13 0
oa14 0
ob14 0
oc14 0
od14 0
ua14 0
ub14 1
uc14 1
ud14 0
oa15 0
ob15 0
oc15 0
od15 0
ua15 0
ub15 1
uc15 1
ud15 0
oa16 0
ob16 0
oc16 1
od16 0
ua16 0
ub16 1
uc16 0
ud16 0
oa17 0
ob17 0
oc17 0
od17 1
ua17 0
ub17 1
uc17 0
ud17 0
oa18 0
ob18 0
oc18 0
od18 0
ua18 0
ub18 1
uc18 0
ud18 1
oa19 0
ob19 0
oc19 0
od19 0
ua19 0
ub19 1
uc19 0
ud19 1
oa20 0
ob20 0
oc20 0
od20 0
ua20 0
ub20 1
uc20 0
ud20 1
oa21 0
ob21 0
oc21 0
od21 0
ua21 0
ub21 0
uc21 1
ud21 0
oa22 0
ob22 0
oc22 0
od22 0
ua22 0
ub22 0
uc22 1
ud22 0
oa23 0
ob23 0
oc23 0
od23 0
ua23 0
ub23 0
uc23 1
ud23 0
oa24 0
ob24 0
oc24 0
od24 0
ua24 0
ub24 0
uc24 1
ud24 0
oa25 0
ob25 0
oc25 0
od25 0
ua25 0
ub25 0
uc25 1
ud25 0
oa26 0
ob26 0
oc26 0
od26 0
ua26 0
ub26 0
uc26 1
ud26 0
oa27 0
ob27 0
oc27 0
od27 0
ua27 0
ub27 0
uc27 1
ud27 0
oa28 0
ob28 0
oc28 0
od28 0
ua28 0
ub28 0
uc28 1
ud28 0
oa29 0
ob29 0
oc29 0
od29 0
ua29 0
ub29 0
uc29 1
ud29 0
oa30 0
ob30 0
oc30 0
od30 0
ua30 0
ub30 0
uc30 1
ud30 0
oa31 1
ob31 0
oc31 0
od31 0
ua31 0
ub31 0
uc31 1
ud31 0
oa32 1
ob32 0
oc32 0
od32 0
ua32 0
ub32 0
uc32 1
ud32 0
oa33 0
ob33 0
oc33 0
od33 0
ua33 0
ub33 0
uc33 1
ud33 0
oa34 0
ob34 0
oc34 0
od34 0
ua34 0
ub34 0
uc34 1
ud34 0
oa35 0
ob35 0
oc35 0
od35 0
ua35 0
ub35 0
uc35 1
ud35 0
oa36 0
ob36 0
oc36 0
od36 0
ua36 0
ub36 0
uc36 1
ud36 0
oa37 0
ob37 0
oc37 0
od37 0
ua37 0
ub37 0
uc37 1
ud37 0
oa38 0
ob38 0
oc38 -3.0548896745585807e-12
od38 0
ua38 0
ub38 1
uc38 1.0000000000030549e+00
ud38 0
oa39 0
ob39 -4.0767389464235748e-13
oc39 0
od39 0
ua39 0
ub39 1.0000000000004077e+00
uc39 1
ud39 0
oa40 0
ob40 -4.0767389464235748e-13
oc40 1
od40 0
ua40 0
ub40 1.0000000000004077e+00
uc40 0
ud40 0
oa41 0
ob41 0
oc41 0
od41 1
ua41 0
ub41 1
uc41 0
ud41 0
oa42 0
ob42 0
oc42 0
od42 0
ua42 0
ub42 1
uc42 0
ud42 1
oa43 0
ob43 0
oc43 0
od43 1
ua43 0
ub43 1
uc43 0
ud43 0
oa44 0
ob44 0
oc44 0
od44 0
ua44 0
ub44 1
uc44 0
ud44 0
oa45 0
ob45 0
oc45 0
od45 0
ua45 0
ub45 1
uc45 0
ud45 0
oa46 0
ob46 0
oc46 1
od46 0
ua46 0
ub46 1
uc46 0
ud46 0
oa47 0
ob47 0
oc47 0
od47 0
ua47 0
ub47 1
uc47 1
ud47 0
oa48 0
ob48 0
oc48 0
od48 0
ua48 0
ub48 1
uc48 1
ud48 0
oa49 0
ob49 1
oc49 0
od49 0
ua49 0
ub49 0
uc49 1
ud49 0
oa50 0
ob50 0
oc50 0
od50 0
ua50 0
ub50 0
uc50 1
ud50 0
oa51 1
ob51 0
oc51 0
od51 0
ua51 0
ub51 0
uc51 1
ud51 0
oa52 1.0000000000000191e+00
ob52 0
oc52 0
od52 0
ua52 0
ub52 0
uc52 1
ud52 0
oa53 0
ob53 0
oc53 0
od53 0
ua53 0
ub53 0
uc53 1
ud53 0
oa54 0
ob54 0
oc54 0
od54 0
ua54 0
ub54 0
uc54 1
ud54 0
oa55 0
ob55 0
oc55 0
od55 0
ua55 0
ub55 0
uc55 1
ud55 0
oa56 0
ob56 1
oc56 0
od56 0
ua56 0
ub56 0
uc56 1
ud56 0
oa57 0
ob57 0
oc57 0
od57 0
ua57 0
ub57 1
uc57 1
ud57 0
oa58 0
ob58 0
oc58 0
od58 0
ua58 0
ub58 1
uc58 1
ud58 0
oa59 0
ob59 0
oc59 0
od59 0
ua59 0
ub59 1
uc59 1
ud59 0
h0 0
h1 0
h2 0
h3 1
h4 0
h5 0
h6 0
h7 0
h8 0
h9 0
h10 0
h11 0
h12 0
h13 0
h14 0
h15 0
h16 0
h17 0
h18 0
h19 0
h20 0
h21 1
h22 1
h23 1
h24 1
h25 1
h26 1
h27 1
h28 1
h29 1
h30 1
h31 1
h32 1
h33 1
h34 1
h35 1
h36 1
h37 1
h38 0
h39 0
h40 0
h41 0
h42 0
h43 0
h44 0
h45 0
h46 0
h47 0
h48 0
h49 0
h50 1
h51 1
h52 1
h53 1
h54 1
h55 1
h56 0
h57 0
h58 0
h59 0
